Route #1: 1 37 9 22 13 33 11 6 41 1
Route #2: 1 26 42 30 19 49 51 45 1
Route #3: 1 54 48 40 50 10 36 1
Route #4: 1 31 23 20 28 14 55 29 1
Route #5: 1 5 8 43 32 27 47 21 1
Route #6: 1 17 39 12 16 52 18 1
Route #7: 1 44 46 2 7 1
Route #8: 1 38 4 15 34 35 3 1
Route #9: 1 53 25 24 1
cost: 1245
